1609750800
1609765200
1609837200
1609851600
1609923600
1609938000
1610010000
1610024400
1610097000
1610111400
1610355600
1610370000
1610442300
1610456700
1610530200
1610544600
1610614800
1610629200
1610701200
1610715600
1610961600
1610976000
1611046800
1611061200
1611133200
1611147600
1611221400
1611235800
1611306900
1611321300
1611565200
1611579600
1611651600
1611666000
1611738000
1611752400
1611824400
1611838800
1611912600
1611927000
